Ba  O Pt Zr 
 1.0000000000000000
    41.9200000000000017    0.0000000000000000    0.0000000000000000
     0.0000000000000000   41.9200000000000017    0.0000000000000000
     0.0000000000000000    0.0000000000000000   44.6752256941183390
 Ba  O   Pt  Zr   H
 400 1200 407 400 2
Cartesian
  1.5017720893280249  1.2166992490917774  1.0000000000000000
  1.5017720893280249  1.2166992490917774  5.1920000000000002
  1.5017720893280249  1.2166992490917774  9.3840000000000003
  1.5017720893280249  1.2166992490917774 13.5760000000000005
  1.5017720893280249  5.4086992490917778  1.0000000000000000
  1.5017720893280249  5.4086992490917778  5.1920000000000002
  1.5017720893280249  5.4086992490917778  9.3840000000000003
  1.5017720893280249  5.4086992490917778 13.5760000000000005
  1.5017720893280249  9.6006992490917771  1.0000000000000000
  1.5017720893280249  9.6006992490917771  5.1920000000000002
  1.5017720893280249  9.6006992490917771  9.3840000000000003
  1.5017720893280249  9.6006992490917771 13.5760000000000005
  1.5017720893280249 13.7926992490917772  1.0000000000000000
  1.5017720893280249 13.7926992490917772  5.1920000000000002
  1.5017720893280249 13.7926992490917772  9.3840000000000003
  1.5017720893280249 13.7926992490917772 13.5760000000000005
  1.5017720893280249 17.9846992490917792  1.0000000000000000
  1.5017720893280249 17.9846992490917792  5.1920000000000002
  1.5017720893280249 17.9846992490917792  9.3840000000000003
  1.5017720893280249 17.9846992490917792 13.5760000000000005
  1.5017720893280249 22.1766992490917794  1.0000000000000000
  1.5017720893280249 22.1766992490917794  5.1920000000000002
  1.5017720893280249 22.1766992490917794  9.3840000000000003
  1.5017720893280249 22.1766992490917794 13.5760000000000005
  1.5017720893280249 26.3686992490917795  1.0000000000000000
  1.5017720893280249 26.3686992490917795  5.1920000000000002
  1.5017720893280249 26.3686992490917795  9.3840000000000003
  1.5017720893280249 26.3686992490917795 13.5760000000000005
  1.5017720893280249 30.5606992490917797  1.0000000000000000
  1.5017720893280249 30.5606992490917797  5.1920000000000002
  1.5017720893280249 30.5606992490917797  9.3840000000000003
  1.5017720893280249 30.5606992490917797 13.5760000000000005
  1.5017720893280249 34.7526992490917763  1.0000000000000000
  1.5017720893280249 34.7526992490917763  5.1920000000000002
  1.5017720893280249 34.7526992490917763  9.3840000000000003
  1.5017720893280249 34.7526992490917763 13.5760000000000005
  1.5017720893280249 38.9446992490917765  1.0000000000000000
  1.5017720893280249 38.9446992490917765  5.1920000000000002
  1.5017720893280249 38.9446992490917765  9.3840000000000003
  1.5017720893280249 38.9446992490917765 13.5760000000000005
  5.6937720893280250  1.2166992490917774  1.0000000000000000
  5.6937720893280250  1.2166992490917774  5.1920000000000002
  5.6937720893280250  1.2166992490917774  9.3840000000000003
  5.6937720893280250  1.2166992490917774 13.5760000000000005
  5.6937720893280250  5.4086992490917778  1.0000000000000000
  5.6937720893280250  5.4086992490917778  5.1920000000000002
  5.6937720893280250  5.4086992490917778  9.3840000000000003
  5.6937720893280250  5.4086992490917778 13.5760000000000005
  5.6937720893280250  9.6006992490917771  1.0000000000000000
  5.6937720893280250  9.6006992490917771  5.1920000000000002
  5.6937720893280250  9.6006992490917771  9.3840000000000003
  5.6937720893280250  9.6006992490917771 13.5760000000000005
  5.6937720893280250 13.7926992490917772  1.0000000000000000
  5.6937720893280250 13.7926992490917772  5.1920000000000002
  5.6937720893280250 13.7926992490917772  9.3840000000000003
  5.6937720893280250 13.7926992490917772 13.5760000000000005
  5.6937720893280250 17.9846992490917792  1.0000000000000000
  5.6937720893280250 17.9846992490917792  5.1920000000000002
  5.6937720893280250 17.9846992490917792  9.3840000000000003
  5.6937720893280250 17.9846992490917792 13.5760000000000005
  5.6937720893280250 22.1766992490917794  1.0000000000000000
  5.6937720893280250 22.1766992490917794  5.1920000000000002
  5.6937720893280250 22.1766992490917794  9.3840000000000003
  5.6937720893280250 22.1766992490917794 13.5760000000000005
  5.6937720893280250 26.3686992490917795  1.0000000000000000
  5.6937720893280250 26.3686992490917795  5.1920000000000002
  5.6937720893280250 26.3686992490917795  9.3840000000000003
  5.6937720893280250 26.3686992490917795 13.5760000000000005
  5.6937720893280250 30.5606992490917797  1.0000000000000000
  5.6937720893280250 30.5606992490917797  5.1920000000000002
  5.6937720893280250 30.5606992490917797  9.3840000000000003
  5.6937720893280250 30.5606992490917797 13.5760000000000005
  5.6937720893280250 34.7526992490917763  1.0000000000000000
  5.6937720893280250 34.7526992490917763  5.1920000000000002
  5.6937720893280250 34.7526992490917763  9.3840000000000003
  5.6937720893280250 34.7526992490917763 13.5760000000000005
  5.6937720893280250 38.9446992490917765  1.0000000000000000
  5.6937720893280250 38.9446992490917765  5.1920000000000002
  5.6937720893280250 38.9446992490917765  9.3840000000000003
  5.6937720893280250 38.9446992490917765 13.5760000000000005
  9.8857720893280252  1.2166992490917774  1.0000000000000000
  9.8857720893280252  1.2166992490917774  5.1920000000000002
  9.8857720893280252  1.2166992490917774  9.3840000000000003
  9.8857720893280252  1.2166992490917774 13.5760000000000005
  9.8857720893280252  5.4086992490917778  1.0000000000000000
  9.8857720893280252  5.4086992490917778  5.1920000000000002
  9.8857720893280252  5.4086992490917778  9.3840000000000003
  9.8857720893280252  5.4086992490917778 13.5760000000000005
  9.8857720893280252  9.6006992490917771  1.0000000000000000
  9.8857720893280252  9.6006992490917771  5.1920000000000002
  9.8857720893280252  9.6006992490917771  9.3840000000000003
  9.8857720893280252  9.6006992490917771 13.5760000000000005
  9.8857720893280252 13.7926992490917772  1.0000000000000000
  9.8857720893280252 13.7926992490917772  5.1920000000000002
  9.8857720893280252 13.7926992490917772  9.3840000000000003
  9.8857720893280252 13.7926992490917772 13.5760000000000005
  9.8857720893280252 17.9846992490917792  1.0000000000000000
  9.8857720893280252 17.9846992490917792  5.1920000000000002
  9.8857720893280252 17.9846992490917792  9.3840000000000003
  9.8857720893280252 17.9846992490917792 13.5760000000000005
  9.8857720893280252 22.1766992490917794  1.0000000000000000
  9.8857720893280252 22.1766992490917794  5.1920000000000002
  9.8857720893280252 22.1766992490917794  9.3840000000000003
  9.8857720893280252 22.1766992490917794 13.5760000000000005
  9.8857720893280252 26.3686992490917795  1.0000000000000000
  9.8857720893280252 26.3686992490917795  5.1920000000000002
  9.8857720893280252 26.3686992490917795  9.3840000000000003
  9.8857720893280252 26.3686992490917795 13.5760000000000005
  9.8857720893280252 30.5606992490917797  1.0000000000000000
  9.8857720893280252 30.5606992490917797  5.1920000000000002
  9.8857720893280252 30.5606992490917797  9.3840000000000003
  9.8857720893280252 30.5606992490917797 13.5760000000000005
  9.8857720893280252 34.7526992490917763  1.0000000000000000
  9.8857720893280252 34.7526992490917763  5.1920000000000002
  9.8857720893280252 34.7526992490917763  9.3840000000000003
  9.8857720893280252 34.7526992490917763 13.5760000000000005
  9.8857720893280252 38.9446992490917765  1.0000000000000000
  9.8857720893280252 38.9446992490917765  5.1920000000000002
  9.8857720893280252 38.9446992490917765  9.3840000000000003
  9.8857720893280252 38.9446992490917765 13.5760000000000005
 14.0777720893280254  1.2166992490917774  1.0000000000000000
 14.0777720893280254  1.2166992490917774  5.1920000000000002
 14.0777720893280254  1.2166992490917774  9.3840000000000003
 14.0777720893280254  1.2166992490917774 13.5760000000000005
 14.0777720893280254  5.4086992490917778  1.0000000000000000
 14.0777720893280254  5.4086992490917778  5.1920000000000002
 14.0777720893280254  5.4086992490917778  9.3840000000000003
 14.0777720893280254  5.4086992490917778 13.5760000000000005
 14.0777720893280254  9.6006992490917771  1.0000000000000000
 14.0777720893280254  9.6006992490917771  5.1920000000000002
 14.0777720893280254  9.6006992490917771  9.3840000000000003
 14.0777720893280254  9.6006992490917771 13.5760000000000005
 14.0777720893280254 13.7926992490917772  1.0000000000000000
 14.0777720893280254 13.7926992490917772  5.1920000000000002
 14.0777720893280254 13.7926992490917772  9.3840000000000003
 14.0777720893280254 13.7926992490917772 13.5760000000000005
 14.0777720893280254 17.9846992490917792  1.0000000000000000
 14.0777720893280254 17.9846992490917792  5.1920000000000002
 14.0777720893280254 17.9846992490917792  9.3840000000000003
 14.0777720893280254 17.9846992490917792 13.5760000000000005
 14.0777720893280254 22.1766992490917794  1.0000000000000000
 14.0777720893280254 22.1766992490917794  5.1920000000000002
 14.0777720893280254 22.1766992490917794  9.3840000000000003
 14.0777720893280254 22.1766992490917794 13.5760000000000005
 14.0777720893280254 26.3686992490917795  1.0000000000000000
 14.0777720893280254 26.3686992490917795  5.1920000000000002
 14.0777720893280254 26.3686992490917795  9.3840000000000003
 14.0777720893280254 26.3686992490917795 13.5760000000000005
 14.0777720893280254 30.5606992490917797  1.0000000000000000
 14.0777720893280254 30.5606992490917797  5.1920000000000002
 14.0777720893280254 30.5606992490917797  9.3840000000000003
 14.0777720893280254 30.5606992490917797 13.5760000000000005
 14.0777720893280254 34.7526992490917763  1.0000000000000000
 14.0777720893280254 34.7526992490917763  5.1920000000000002
 14.0777720893280254 34.7526992490917763  9.3840000000000003
 14.0777720893280254 34.7526992490917763 13.5760000000000005
 14.0777720893280254 38.9446992490917765  1.0000000000000000
 14.0777720893280254 38.9446992490917765  5.1920000000000002
 14.0777720893280254 38.9446992490917765  9.3840000000000003
 14.0777720893280254 38.9446992490917765 13.5760000000000005
 18.2697720893280255  1.2166992490917774  1.0000000000000000
 18.2697720893280255  1.2166992490917774  5.1920000000000002
 18.2697720893280255  1.2166992490917774  9.3840000000000003
 18.2697720893280255  1.2166992490917774 13.5760000000000005
 18.2697720893280255  5.4086992490917778  1.0000000000000000
 18.2697720893280255  5.4086992490917778  5.1920000000000002
 18.2697720893280255  5.4086992490917778  9.3840000000000003
 18.2697720893280255  5.4086992490917778 13.5760000000000005
 18.2697720893280255  9.6006992490917771  1.0000000000000000
 18.2697720893280255  9.6006992490917771  5.1920000000000002
 18.2697720893280255  9.6006992490917771  9.3840000000000003
 18.2697720893280255  9.6006992490917771 13.5760000000000005
 18.2697720893280255 13.7926992490917772  1.0000000000000000
 18.2697720893280255 13.7926992490917772  5.1920000000000002
 18.2697720893280255 13.7926992490917772  9.3840000000000003
 18.2697720893280255 13.7926992490917772 13.5760000000000005
 18.2697720893280255 17.9846992490917792  1.0000000000000000
 18.2697720893280255 17.9846992490917792  5.1920000000000002
 18.2697720893280255 17.9846992490917792  9.3840000000000003
 18.2697720893280255 17.9846992490917792 13.5760000000000005
 18.2697720893280255 22.1766992490917794  1.0000000000000000
 18.2697720893280255 22.1766992490917794  5.1920000000000002
 18.2697720893280255 22.1766992490917794  9.3840000000000003
 18.2697720893280255 22.1766992490917794 13.5760000000000005
 18.2697720893280255 26.3686992490917795  1.0000000000000000
 18.2697720893280255 26.3686992490917795  5.1920000000000002
 18.2697720893280255 26.3686992490917795  9.3840000000000003
 18.2697720893280255 26.3686992490917795 13.5760000000000005
 18.2697720893280255 30.5606992490917797  1.0000000000000000
 18.2697720893280255 30.5606992490917797  5.1920000000000002
 18.2697720893280255 30.5606992490917797  9.3840000000000003
 18.2697720893280255 30.5606992490917797 13.5760000000000005
 18.2697720893280255 34.7526992490917763  1.0000000000000000
 18.2697720893280255 34.7526992490917763  5.1920000000000002
 18.2697720893280255 34.7526992490917763  9.3840000000000003
 18.2697720893280255 34.7526992490917763 13.5760000000000005
 18.2697720893280255 38.9446992490917765  1.0000000000000000
 18.2697720893280255 38.9446992490917765  5.1920000000000002
 18.2697720893280255 38.9446992490917765  9.3840000000000003
 18.2697720893280255 38.9446992490917765 13.5760000000000005
 22.4617720893280257  1.2166992490917774  1.0000000000000000
 22.4617720893280257  1.2166992490917774  5.1920000000000002
 22.4617720893280257  1.2166992490917774  9.3840000000000003
 22.4617720893280257  1.2166992490917774 13.5760000000000005
 22.4617720893280257  5.4086992490917778  1.0000000000000000
 22.4617720893280257  5.4086992490917778  5.1920000000000002
 22.4617720893280257  5.4086992490917778  9.3840000000000003
 22.4617720893280257  5.4086992490917778 13.5760000000000005
 22.4617720893280257  9.6006992490917771  1.0000000000000000
 22.4617720893280257  9.6006992490917771  5.1920000000000002
 22.4617720893280257  9.6006992490917771  9.3840000000000003
 22.4617720893280257  9.6006992490917771 13.5760000000000005
 22.4617720893280257 13.7926992490917772  1.0000000000000000
 22.4617720893280257 13.7926992490917772  5.1920000000000002
 22.4617720893280257 13.7926992490917772  9.3840000000000003
 22.4617720893280257 13.7926992490917772 13.5760000000000005
 22.4617720893280257 17.9846992490917792  1.0000000000000000
 22.4617720893280257 17.9846992490917792  5.1920000000000002
 22.4617720893280257 17.9846992490917792  9.3840000000000003
 22.4617720893280257 17.9846992490917792 13.5760000000000005
 22.4617720893280257 22.1766992490917794  1.0000000000000000
 22.4617720893280257 22.1766992490917794  5.1920000000000002
 22.4617720893280257 22.1766992490917794  9.3840000000000003
 22.4617720893280257 22.1766992490917794 13.5760000000000005
 22.4617720893280257 26.3686992490917795  1.0000000000000000
 22.4617720893280257 26.3686992490917795  5.1920000000000002
 22.4617720893280257 26.3686992490917795  9.3840000000000003
 22.4617720893280257 26.3686992490917795 13.5760000000000005
 22.4617720893280257 30.5606992490917797  1.0000000000000000
 22.4617720893280257 30.5606992490917797  5.1920000000000002
 22.4617720893280257 30.5606992490917797  9.3840000000000003
 22.4617720893280257 30.5606992490917797 13.5760000000000005
 22.4617720893280257 34.7526992490917763  1.0000000000000000
 22.4617720893280257 34.7526992490917763  5.1920000000000002
 22.4617720893280257 34.7526992490917763  9.3840000000000003
 22.4617720893280257 34.7526992490917763 13.5760000000000005
 22.4617720893280257 38.9446992490917765  1.0000000000000000
 22.4617720893280257 38.9446992490917765  5.1920000000000002
 22.4617720893280257 38.9446992490917765  9.3840000000000003
 22.4617720893280257 38.9446992490917765 13.5760000000000005
 26.6537720893280259  1.2166992490917774  1.0000000000000000
 26.6537720893280259  1.2166992490917774  5.1920000000000002
 26.6537720893280259  1.2166992490917774  9.3840000000000003
 26.6537720893280259  1.2166992490917774 13.5760000000000005
 26.6537720893280259  5.4086992490917778  1.0000000000000000
 26.6537720893280259  5.4086992490917778  5.1920000000000002
 26.6537720893280259  5.4086992490917778  9.3840000000000003
 26.6537720893280259  5.4086992490917778 13.5760000000000005
 26.6537720893280259  9.6006992490917771  1.0000000000000000
 26.6537720893280259  9.6006992490917771  5.1920000000000002
 26.6537720893280259  9.6006992490917771  9.3840000000000003
 26.6537720893280259  9.6006992490917771 13.5760000000000005
 26.6537720893280259 13.7926992490917772  1.0000000000000000
 26.6537720893280259 13.7926992490917772  5.1920000000000002
 26.6537720893280259 13.7926992490917772  9.3840000000000003
 26.6537720893280259 13.7926992490917772 13.5760000000000005
 26.6537720893280259 17.9846992490917792  1.0000000000000000
 26.6537720893280259 17.9846992490917792  5.1920000000000002
 26.6537720893280259 17.9846992490917792  9.3840000000000003
 26.6537720893280259 17.9846992490917792 13.5760000000000005
 26.6537720893280259 22.1766992490917794  1.0000000000000000
 26.6537720893280259 22.1766992490917794  5.1920000000000002
 26.6537720893280259 22.1766992490917794  9.3840000000000003
 26.6537720893280259 22.1766992490917794 13.5760000000000005
 26.6537720893280259 26.3686992490917795  1.0000000000000000
 26.6537720893280259 26.3686992490917795  5.1920000000000002
 26.6537720893280259 26.3686992490917795  9.3840000000000003
 26.6537720893280259 26.3686992490917795 13.5760000000000005
 26.6537720893280259 30.5606992490917797  1.0000000000000000
 26.6537720893280259 30.5606992490917797  5.1920000000000002
 26.6537720893280259 30.5606992490917797  9.3840000000000003
 26.6537720893280259 30.5606992490917797 13.5760000000000005
 26.6537720893280259 34.7526992490917763  1.0000000000000000
 26.6537720893280259 34.7526992490917763  5.1920000000000002
 26.6537720893280259 34.7526992490917763  9.3840000000000003
 26.6537720893280259 34.7526992490917763 13.5760000000000005
 26.6537720893280259 38.9446992490917765  1.0000000000000000
 26.6537720893280259 38.9446992490917765  5.1920000000000002
 26.6537720893280259 38.9446992490917765  9.3840000000000003
 26.6537720893280259 38.9446992490917765 13.5760000000000005
 30.8457720893280261  1.2166992490917774  1.0000000000000000
 30.8457720893280261  1.2166992490917774  5.1920000000000002
 30.8457720893280261  1.2166992490917774  9.3840000000000003
 30.8457720893280261  1.2166992490917774 13.5760000000000005
 30.8457720893280261  5.4086992490917778  1.0000000000000000
 30.8457720893280261  5.4086992490917778  5.1920000000000002
 30.8457720893280261  5.4086992490917778  9.3840000000000003
 30.8457720893280261  5.4086992490917778 13.5760000000000005
 30.8457720893280261  9.6006992490917771  1.0000000000000000
 30.8457720893280261  9.6006992490917771  5.1920000000000002
 30.8457720893280261  9.6006992490917771  9.3840000000000003
 30.8457720893280261  9.6006992490917771 13.5760000000000005
 30.8457720893280261 13.7926992490917772  1.0000000000000000
 30.8457720893280261 13.7926992490917772  5.1920000000000002
 30.8457720893280261 13.7926992490917772  9.3840000000000003
 30.8457720893280261 13.7926992490917772 13.5760000000000005
 30.8457720893280261 17.9846992490917792  1.0000000000000000
 30.8457720893280261 17.9846992490917792  5.1920000000000002
 30.8457720893280261 17.9846992490917792  9.3840000000000003
 30.8457720893280261 17.9846992490917792 13.5760000000000005
 30.8457720893280261 22.1766992490917794  1.0000000000000000
 30.8457720893280261 22.1766992490917794  5.1920000000000002
 30.8457720893280261 22.1766992490917794  9.3840000000000003
 30.8457720893280261 22.1766992490917794 13.5760000000000005
 30.8457720893280261 26.3686992490917795  1.0000000000000000
 30.8457720893280261 26.3686992490917795  5.1920000000000002
 30.8457720893280261 26.3686992490917795  9.3840000000000003
 30.8457720893280261 26.3686992490917795 13.5760000000000005
 30.8457720893280261 30.5606992490917797  1.0000000000000000
 30.8457720893280261 30.5606992490917797  5.1920000000000002
 30.8457720893280261 30.5606992490917797  9.3840000000000003
 30.8457720893280261 30.5606992490917797 13.5760000000000005
 30.8457720893280261 34.7526992490917763  1.0000000000000000
 30.8457720893280261 34.7526992490917763  5.1920000000000002
 30.8457720893280261 34.7526992490917763  9.3840000000000003
 30.8457720893280261 34.7526992490917763 13.5760000000000005
 30.8457720893280261 38.9446992490917765  1.0000000000000000
 30.8457720893280261 38.9446992490917765  5.1920000000000002
 30.8457720893280261 38.9446992490917765  9.3840000000000003
 30.8457720893280261 38.9446992490917765 13.5760000000000005
 35.0377720893280298  1.2166992490917774  1.0000000000000000
 35.0377720893280298  1.2166992490917774  5.1920000000000002
 35.0377720893280298  1.2166992490917774  9.3840000000000003
 35.0377720893280298  1.2166992490917774 13.5760000000000005
 35.0377720893280298  5.4086992490917778  1.0000000000000000
 35.0377720893280298  5.4086992490917778  5.1920000000000002
 35.0377720893280298  5.4086992490917778  9.3840000000000003
 35.0377720893280298  5.4086992490917778 13.5760000000000005
 35.0377720893280298  9.6006992490917771  1.0000000000000000
 35.0377720893280298  9.6006992490917771  5.1920000000000002
 35.0377720893280298  9.6006992490917771  9.3840000000000003
 35.0377720893280298  9.6006992490917771 13.5760000000000005
 35.0377720893280298 13.7926992490917772  1.0000000000000000
 35.0377720893280298 13.7926992490917772  5.1920000000000002
 35.0377720893280298 13.7926992490917772  9.3840000000000003
 35.0377720893280298 13.7926992490917772 13.5760000000000005
 35.0377720893280298 17.9846992490917792  1.0000000000000000
 35.0377720893280298 17.9846992490917792  5.1920000000000002
 35.0377720893280298 17.9846992490917792  9.3840000000000003
 35.0377720893280298 17.9846992490917792 13.5760000000000005
 35.0377720893280298 22.1766992490917794  1.0000000000000000
 35.0377720893280298 22.1766992490917794  5.1920000000000002
 35.0377720893280298 22.1766992490917794  9.3840000000000003
 35.0377720893280298 22.1766992490917794 13.5760000000000005
 35.0377720893280298 26.3686992490917795  1.0000000000000000
 35.0377720893280298 26.3686992490917795  5.1920000000000002
 35.0377720893280298 26.3686992490917795  9.3840000000000003
 35.0377720893280298 26.3686992490917795 13.5760000000000005
 35.0377720893280298 30.5606992490917797  1.0000000000000000
 35.0377720893280298 30.5606992490917797  5.1920000000000002
 35.0377720893280298 30.5606992490917797  9.3840000000000003
 35.0377720893280298 30.5606992490917797 13.5760000000000005
 35.0377720893280298 34.7526992490917763  1.0000000000000000
 35.0377720893280298 34.7526992490917763  5.1920000000000002
 35.0377720893280298 34.7526992490917763  9.3840000000000003
 35.0377720893280298 34.7526992490917763 13.5760000000000005
 35.0377720893280298 38.9446992490917765  1.0000000000000000
 35.0377720893280298 38.9446992490917765  5.1920000000000002
 35.0377720893280298 38.9446992490917765  9.3840000000000003
 35.0377720893280298 38.9446992490917765 13.5760000000000005
 39.2297720893280299  1.2166992490917774  1.0000000000000000
 39.2297720893280299  1.2166992490917774  5.1920000000000002
 39.2297720893280299  1.2166992490917774  9.3840000000000003
 39.2297720893280299  1.2166992490917774 13.5760000000000005
 39.2297720893280299  5.4086992490917778  1.0000000000000000
 39.2297720893280299  5.4086992490917778  5.1920000000000002
 39.2297720893280299  5.4086992490917778  9.3840000000000003
 39.2297720893280299  5.4086992490917778 13.5760000000000005
 39.2297720893280299  9.6006992490917771  1.0000000000000000
 39.2297720893280299  9.6006992490917771  5.1920000000000002
 39.2297720893280299  9.6006992490917771  9.3840000000000003
 39.2297720893280299  9.6006992490917771 13.5760000000000005
 39.2297720893280299 13.7926992490917772  1.0000000000000000
 39.2297720893280299 13.7926992490917772  5.1920000000000002
 39.2297720893280299 13.7926992490917772  9.3840000000000003
 39.2297720893280299 13.7926992490917772 13.5760000000000005
 39.2297720893280299 17.9846992490917792  1.0000000000000000
 39.2297720893280299 17.9846992490917792  5.1920000000000002
 39.2297720893280299 17.9846992490917792  9.3840000000000003
 39.2297720893280299 17.9846992490917792 13.5760000000000005
 39.2297720893280299 22.1766992490917794  1.0000000000000000
 39.2297720893280299 22.1766992490917794  5.1920000000000002
 39.2297720893280299 22.1766992490917794  9.3840000000000003
 39.2297720893280299 22.1766992490917794 13.5760000000000005
 39.2297720893280299 26.3686992490917795  1.0000000000000000
 39.2297720893280299 26.3686992490917795  5.1920000000000002
 39.2297720893280299 26.3686992490917795  9.3840000000000003
 39.2297720893280299 26.3686992490917795 13.5760000000000005
 39.2297720893280299 30.5606992490917797  1.0000000000000000
 39.2297720893280299 30.5606992490917797  5.1920000000000002
 39.2297720893280299 30.5606992490917797  9.3840000000000003
 39.2297720893280299 30.5606992490917797 13.5760000000000005
 39.2297720893280299 34.7526992490917763  1.0000000000000000
 39.2297720893280299 34.7526992490917763  5.1920000000000002
 39.2297720893280299 34.7526992490917763  9.3840000000000003
 39.2297720893280299 34.7526992490917763 13.5760000000000005
 39.2297720893280299 38.9446992490917765  1.0000000000000000
 39.2297720893280299 38.9446992490917765  5.1920000000000002
 39.2297720893280299 38.9446992490917765  9.3840000000000003
 39.2297720893280299 38.9446992490917765 13.5760000000000005
  3.5977720893280249  3.3126992490917777  1.0000000000000000
  3.5977720893280249  1.2166992490917774  3.0960000000000001
  1.5017720893280249  3.3126992490917777  3.0960000000000001
  3.5977720893280249  3.3126992490917777  5.1920000000000002
  3.5977720893280249  1.2166992490917774  7.2879999999999967
  1.5017720893280249  3.3126992490917777  7.2879999999999967
  3.5977720893280249  3.3126992490917777  9.3840000000000003
  3.5977720893280249  1.2166992490917774 11.4799999999999969
  1.5017720893280249  3.3126992490917777 11.4799999999999969
  3.5977720893280249  3.3126992490917777 13.5760000000000005
  3.5977720893280249  1.2166992490917774 15.6719999999999970
  1.5017720893280249  3.3126992490917777 15.6719999999999970
  3.5977720893280249  7.5046992490917779  1.0000000000000000
  3.5977720893280249  5.4086992490917778  3.0960000000000001
  1.5017720893280249  7.5046992490917779  3.0960000000000001
  3.5977720893280249  7.5046992490917779  5.1920000000000002
  3.5977720893280249  5.4086992490917778  7.2879999999999967
  1.5017720893280249  7.5046992490917779  7.2879999999999967
  3.5977720893280249  7.5046992490917779  9.3840000000000003
  3.5977720893280249  5.4086992490917778 11.4799999999999969
  1.5017720893280249  7.5046992490917779 11.4799999999999969
  3.5977720893280249  7.5046992490917779 13.5760000000000005
  3.5977720893280249  5.4086992490917778 15.6719999999999970
  1.5017720893280249  7.5046992490917779 15.6719999999999970
  3.5977720893280249 11.6966992490917772  1.0000000000000000
  3.5977720893280249  9.6006992490917771  3.0960000000000001
  1.5017720893280249 11.6966992490917772  3.0960000000000001
  3.5977720893280249 11.6966992490917772  5.1920000000000002
  3.5977720893280249  9.6006992490917771  7.2879999999999967
  1.5017720893280249 11.6966992490917772  7.2879999999999967
  3.5977720893280249 11.6966992490917772  9.3840000000000003
  3.5977720893280249  9.6006992490917771 11.4799999999999969
  1.5017720893280249 11.6966992490917772 11.4799999999999969
  3.5977720893280249 11.6966992490917772 13.5760000000000005
  3.5977720893280249  9.6006992490917771 15.6719999999999970
  1.5017720893280249 11.6966992490917772 15.6719999999999970
  3.5977720893280249 15.8886992490917773  1.0000000000000000
  3.5977720893280249 13.7926992490917772  3.0960000000000001
  1.5017720893280249 15.8886992490917773  3.0960000000000001
  3.5977720893280249 15.8886992490917773  5.1920000000000002
  3.5977720893280249 13.7926992490917772  7.2879999999999967
  1.5017720893280249 15.8886992490917773  7.2879999999999967
  3.5977720893280249 15.8886992490917773  9.3840000000000003
  3.5977720893280249 13.7926992490917772 11.4799999999999969
  1.5017720893280249 15.8886992490917773 11.4799999999999969
  3.5977720893280249 15.8886992490917773 13.5760000000000005
  3.5977720893280249 13.7926992490917772 15.6719999999999970
  1.5017720893280249 15.8886992490917773 15.6719999999999970
  3.5977720893280249 20.0806992490917793  1.0000000000000000
  3.5977720893280249 17.9846992490917792  3.0960000000000001
  1.5017720893280249 20.0806992490917793  3.0960000000000001
  3.5977720893280249 20.0806992490917793  5.1920000000000002
  3.5977720893280249 17.9846992490917792  7.2879999999999967
  1.5017720893280249 20.0806992490917793  7.2879999999999967
  3.5977720893280249 20.0806992490917793  9.3840000000000003
  3.5977720893280249 17.9846992490917792 11.4799999999999969
  1.5017720893280249 20.0806992490917793 11.4799999999999969
  3.5977720893280249 20.0806992490917793 13.5760000000000005
  3.5977720893280249 17.9846992490917792 15.6719999999999970
  1.5017720893280249 20.0806992490917793 15.6719999999999970
  3.5977720893280249 24.2726992490917794  1.0000000000000000
  3.5977720893280249 22.1766992490917794  3.0960000000000001
  1.5017720893280249 24.2726992490917794  3.0960000000000001
  3.5977720893280249 24.2726992490917794  5.1920000000000002
  3.5977720893280249 22.1766992490917794  7.2879999999999967
  1.5017720893280249 24.2726992490917794  7.2879999999999967
  3.5977720893280249 24.2726992490917794  9.3840000000000003
  3.5977720893280249 22.1766992490917794 11.4799999999999969
  1.5017720893280249 24.2726992490917794 11.4799999999999969
  3.5977720893280249 24.2726992490917794 13.5760000000000005
  3.5977720893280249 22.1766992490917794 15.6719999999999970
  1.5017720893280249 24.2726992490917794 15.6719999999999970
  3.5977720893280249 28.4646992490917796  1.0000000000000000
  3.5977720893280249 26.3686992490917795  3.0960000000000001
  1.5017720893280249 28.4646992490917796  3.0960000000000001
  3.5977720893280249 28.4646992490917796  5.1920000000000002
  3.5977720893280249 26.3686992490917795  7.2879999999999967
  1.5017720893280249 28.4646992490917796  7.2879999999999967
  3.5977720893280249 28.4646992490917796  9.3840000000000003
  3.5977720893280249 26.3686992490917795 11.4799999999999969
  1.5017720893280249 28.4646992490917796 11.4799999999999969
  3.5977720893280249 28.4646992490917796 13.5760000000000005
  3.5977720893280249 26.3686992490917795 15.6719999999999970
  1.5017720893280249 28.4646992490917796 15.6719999999999970
  3.5977720893280249 32.6566992490917727  1.0000000000000000
  3.5977720893280249 30.5606992490917797  3.0960000000000001
  1.5017720893280249 32.6566992490917727  3.0960000000000001