Ba Zr O  H 
 1.0000000000000000
     8.3840000000000003    0.0000000000000000    0.0000000000000000
     0.0000000000000000    8.3840000000000003    0.0000000000000000
     0.0000000000000000    0.0000000000000000    8.3840000000000003
 Ba  Zr  O   H  
   8   8  24   2
Cartesian
  0.1139054832676197  0.0494987884410925 -0.3315066623061717
  0.3036179785512687  0.4457605417508039  3.8304517655315529
  0.1151411783830376  4.4112526351215697 -0.2575203400467670
  0.3459628326535157  4.6161098455780456  3.8043641042684682
  4.2532744413241002  0.1848751550186608 -0.0764948530817359
  4.4474882602677157  0.0365863016720110  4.0949070529402398
  4.4172787105837124  4.7924689366016180 -0.3475435202322517
  4.4013746565922185  4.4427307902911775  3.9292846691625511
  2.4412950014894430  2.3489641719199397  1.9202214134745168
  2.0811990200926127  2.2687021182086551  6.1430790194057892
  2.3091643499294268  6.6596577803180521  1.9895922167470377
  2.2821095257065105  6.5228825211938135  6.0512717412181702
  6.7520231336943981  2.2259864480971796  1.7075983787392215
  6.6143095820073681  2.2796121322221956  5.9801549622994514
  6.5319263635579174  6.5924756021181148  1.9523041915637291
  6.5155106108110781  6.4495144667633584  6.0956564504908899
  2.5666067250873921  2.3960805055013918 -0.2307605606861041
  2.2922800255808751  2.1411828139689089  4.0751829105053421
  2.2817510091370270  6.5058195192881634 -0.1261498746811724
  2.4965945615184926  6.6427294795902379  3.9979319985771893
  5.9821340106473073  2.5741120719405428 -0.2621547784963129
  6.4443081035753709  2.1436123100308602  3.9702006961292322
  6.7119744537757180  6.3912222559036138 -0.1270766186031031
  6.5503526790160231  6.6190300488354339  4.0818390396230875
  2.3874893554042118  0.4162563489931113  1.8764266887369900
  2.0704323237801492  0.2583860841496532  6.1267778110275453
  2.6334590540421896  4.5777014700632073  1.9646378469552894
  2.5980655797322854  4.5360605929491795  6.0524017744629717
  6.6892780167729944  0.2159104906339768  1.6062718557196536
  6.5935349410142230  0.2147083022369697  6.4365599585477948
  6.7172416384969225  4.3685465906775587  2.1272737477556301
  6.0586179309082091  4.5351938747300595  5.8926219286322370
  0.4154468582048702  2.2196774333491645  1.9216769190650795
  0.1924064525925273  2.6821467079852868  5.8573141775249162
  0.3456711867926515  6.7469227990645493  2.0112141326445307
  0.2148120706256985  6.5207117990215675  6.2019031296611429
  4.5649931236663273  2.1170522220770343  2.0192518205622529
  4.4931645506050746  1.9761453817649790  6.1202661621903225
  4.5080296441007199  6.7565447870095658  2.0484639546765386
  4.3942102640793470  6.7376537171765669  6.0477224427380456
  4.0685524204240675  2.2795244097507767  6.9139564543674110
  4.6286435240666295  2.9887689443662468  1.5686097847788321
