Ba Zr O  H 
 1.0000000000000000
     8.3840000000000003    0.0000000000000000    0.0000000000000000
     0.0000000000000000    8.3840000000000003    0.0000000000000000
     0.0000000000000000    0.0000000000000000    8.3840000000000003
 Ba  Zr  O   H  
   8   8  24   2
Cartesian
  0.4979583390444260  0.1916455486073149 -0.1637185226708744
  0.1502191686240068  0.2179867673919704  4.1158322611172888
  0.1529695227476865  4.6282561088664274 -0.1821884806495319
  0.3141967656241337  4.4899427075553691  3.9765218067761934
  4.3390832885845132 -0.0663191099168943 -0.5359388369956770
  4.5288987619891881  0.0733896855400507  3.8102233354840966
  4.2899773533541650  4.5908767207733350 -0.1772110937839011
  4.3079461044756853  4.4719622324677806  4.0940959286821421
  2.1970906062783397  2.2926922665023337  1.8748201268611220
  2.2100934751284576  2.3143263654225077  6.1099348652031846
  2.1827226021706791  6.6508814840857031  1.8629182656793661
  2.2810954409367965  6.6255856173711987  6.0292318851696791
  6.5333056679951049  2.2043782023689977  2.0423936008428338
  6.4642483101870107  2.1725964176741908  6.3867367882371928
  6.5247589130637458  6.5184828772239154  1.9778314013802785
  6.4186000713123708  6.3491515741647593  5.9981571459382481
  2.7549702585358040  2.3194994375234570 -0.2587780234926145
  2.3685540195780241  2.3551864593201435  4.0298636553106570
  2.5901480618911710  6.5155635734750064 -0.2112078251862829
  1.9590243957874074  6.4474499445080262  3.8939043218669624
  6.0735639358668028  2.2658140812073362 -0.0215038278822954
  6.6110462661033766  2.0893613858988922  4.2868571991112745
  6.2907827117954032  6.4558848564814699 -0.3259394038555600
  6.8785253563158335  6.6320010504209366  3.9724237916430334
  2.2310378712011345  0.3384635569875329  1.9197934233150533
  2.4262187478911761  0.2890293267742370  6.0031552494647205
  2.3068642335449709  4.6040295510589333  1.6933798896156493
  1.8880455140234933  4.5448222294842671  6.1292253990791083
  6.6659084618990301  0.2265844725460227  1.8612872047101809
  6.4323559951344853  0.1267108595506717  6.1279317035647445
  6.5874877307125770  4.4073699742661310  2.1326233839253241
  6.4669520000770992  4.4035525303989527  5.9007481990477402
  0.1681741828168233  2.1573068089627352  1.7088549261440942
  0.1703166143984680  2.3922522846815526  6.7190189505454123
  0.1804226190322096  6.5101674066617923  1.5544174044134169
  0.2300045429556057  6.7633871069267899  6.2681549986731007
  4.4111685323573013  2.5822342453605316  1.7462210008997865
  4.3913764284371393  2.4590830069811247  6.1152348184130272
  4.3865424346864827  6.8763327840991399  1.7773621332927900
  4.3240260146494780  6.6186967244361723  5.5893235739663263
  4.3859160054760791  2.4996278349196390  7.1007849305676665
  4.4822407825122124  2.0752618534217757  0.7895849117662223
