Ba1 Zr1 H1 O3
1.0
   4.2123871499999996    0.0000000000000000   -0.0000000000000000
   0.0000000000000000    4.2123871499999996   -0.0000000000000000
  -0.0000000000000000    0.0000000000000000    4.2123871499999996
Ba Zr O H
1 1 3 1
direct
   0.0000000000000000    0.0000000000000000    0.0000000000000000 Ba
   0.5000000000000000    0.5000000000000000    0.5000000000000000 Zr
   0.5000000000000000    0.0000000000000000    0.5000000000000000 O
   0.5000000000000000    0.5000000000000000    0.0000000000000000 O
   0.0000000000000000    0.5000000000000000    0.5000000000000000 O
   0.4050221856614994    0.8100443713229989    0.4050221856614994 H
