Cr La O  H                              
   1.00000000000000     
     5.5366999999999997    0.0000000000000000    0.0000000000000000
     0.0000000000000000    5.7473000000000001    0.0000000000000000
     0.0000000000000000    0.0000000000000000   29.0903926399999975
   Cr   La   O    H 
     8     6    22     1
Selective dynamics
Direct
  0.0000000000000000  0.5000000000000000  0.0034375610270203   F   F   F
  0.5000000000000000  0.0000000000000000  0.0034375610270203   F   F   F
  0.5000000000000000  0.0000000000000000  0.1356616271508670   F   F   F
  0.0000000000000000  0.5000000000000000  0.1356616271508670   F   F   F
  0.9995727663438381  0.5021784086057988  0.2690483086905335   T   T   T
  0.5007643681133510  0.0022915724558498  0.2690204362977534   T   T   T
  0.4839934382630036  0.0062915910005628  0.3991803738557481   T   T   T
  0.0147406462492327  0.5105553056028318  0.4015863193179603   T   T   T
  0.5078000000000031  0.5489999999999995  0.0695495940889472   F   F   F
  0.9921999999999969  0.0489999999999995  0.0695495940889472   F   F   F
  0.4921999999999969  0.4510000000000005  0.2017736602127869   F   F   F
  0.0078000000000031  0.9510000000000005  0.2017736602127869   F   F   F
  0.5124012148551811  0.5455601968763045  0.3356486041219543   T   T   T
  0.9875427185167758  0.0445905864624287  0.3356526938159095   T   T   T
  0.7744000000000000  0.8066000000000031  0.0135923693053357   F   F   F
  0.7256000000000000  0.3066000000000031  0.0135923693053357   F   F   F
  0.4254999999999995  0.9874000000000009  0.0695495940889472   F   F   F
  0.0745000000000005  0.4874000000000009  0.0695495940889472   F   F   F
  0.7256000000000000  0.3066000000000031  0.1255068188725588   F   F   F
  0.7744000000000000  0.8066000000000031  0.1255068188725588   F   F   F
  0.2256000000000000  0.1933999999999969  0.1458164354291753   F   F   F
  0.2744000000000000  0.6933999999999969  0.1458164354291753   F   F   F
  0.5745000000000005  0.0125999999999991  0.2017736602127869   F   F   F
  0.9254999999999995  0.5125999999999991  0.2017736602127869   F   F   F
  0.2841688175098220  0.6988634699585750  0.2570779823776097   T   T   T
  0.2158346168962799  0.1986461164300789  0.2570547305758235   T   T   T
  0.7879019867878935  0.8148938402151674  0.2781109208487321   T   T   T
  0.7121342717235201  0.3146380932142675  0.2781077896318866   T   T   T
  0.4289177795679932  0.9952593202469423  0.3333635064973545   T   T   T
  0.0705072210950959  0.4955773023562167  0.3331659327569439   T   T   T
  0.7138037201685737  0.2959658667027686  0.3895681061608814   T   T   T
  0.7863105295481344  0.7974871953844367  0.3893157410372240   T   T   T
  0.2155693943375350  0.1783814676556298  0.4109625838569361   T   T   T
  0.2860128453947522  0.6831225026584988  0.4101441726399803   T   T   T
  0.9994848448203882  0.5999973278711608  0.4708187160600601   T   T   T
  0.9990719962520038  0.3977962883488585  0.4858049058434378   T   T   T
  0.9999455994032018  0.4045240731400114  0.5235067503762328   T   T   T
 
  0.00000000E+00  0.00000000E+00  0.00000000E+00
  0.00000000E+00  0.00000000E+00  0.00000000E+00
  0.00000000E+00  0.00000000E+00  0.00000000E+00
  0.00000000E+00  0.00000000E+00  0.00000000E+00
  0.00000000E+00  0.00000000E+00  0.00000000E+00
  0.00000000E+00  0.00000000E+00  0.00000000E+00
  0.00000000E+00  0.00000000E+00  0.00000000E+00
  0.00000000E+00  0.00000000E+00  0.00000000E+00
  0.00000000E+00  0.00000000E+00  0.00000000E+00
  0.00000000E+00  0.00000000E+00  0.00000000E+00
  0.00000000E+00  0.00000000E+00  0.00000000E+00
  0.00000000E+00  0.00000000E+00  0.00000000E+00
  0.00000000E+00  0.00000000E+00  0.00000000E+00
  0.00000000E+00  0.00000000E+00  0.00000000E+00
  0.00000000E+00  0.00000000E+00  0.00000000E+00
  0.00000000E+00  0.00000000E+00  0.00000000E+00
  0.00000000E+00  0.00000000E+00  0.00000000E+00
  0.00000000E+00  0.00000000E+00  0.00000000E+00
  0.00000000E+00  0.00000000E+00  0.00000000E+00
  0.00000000E+00  0.00000000E+00  0.00000000E+00
  0.00000000E+00  0.00000000E+00  0.00000000E+00
  0.00000000E+00  0.00000000E+00  0.00000000E+00
  0.00000000E+00  0.00000000E+00  0.00000000E+00
  0.00000000E+00  0.00000000E+00  0.00000000E+00
  0.00000000E+00  0.00000000E+00  0.00000000E+00
  0.00000000E+00  0.00000000E+00  0.00000000E+00
  0.00000000E+00  0.00000000E+00  0.00000000E+00
  0.00000000E+00  0.00000000E+00  0.00000000E+00
  0.00000000E+00  0.00000000E+00  0.00000000E+00
  0.00000000E+00  0.00000000E+00  0.00000000E+00
  0.00000000E+00  0.00000000E+00  0.00000000E+00
  0.00000000E+00  0.00000000E+00  0.00000000E+00
  0.00000000E+00  0.00000000E+00  0.00000000E+00
  0.00000000E+00  0.00000000E+00  0.00000000E+00
  0.00000000E+00  0.00000000E+00  0.00000000E+00
  0.00000000E+00  0.00000000E+00  0.00000000E+00
  0.00000000E+00  0.00000000E+00  0.00000000E+00
