INCAR created by Atomic Simulation Environment
 ENCUT = 400.000000
 POTIM = 0.150000
 EDIFF = 1.00e-04
 EDIFFG = -1.00e-01
 ALGO = Normal
 GGA = PE
 PREC = Normal
 IBRION = 2
 ISMEAR = 0
 ISPIN = 1
 LORBIT = 10
 NELM = 30
 NELMIN = 5
 NPAR = 10
 NSIM = 10
 NSW = 5
 KGAMMA = .TRUE.
 LASPH = .TRUE.
 LCHARG = .FALSE.
 LDIPOL = .FALSE.
 LWAVE = .FALSE.
 LREAL = .TRUE.
