O  H 
 1.0000000000000000
    20.0000000000000000    0.0000000000000000    0.0000000000000000
     0.0000000000000000   20.0000000000000000    0.0000000000000000
     0.0000000000000000    0.0000000000000000   20.0000000000000000
 O   H  
   1   1
Cartesian
 10.0000000000000000 10.0000000000000000 10.4895350000000018
 10.0000000000000000 10.0000000000000000  9.5104650000000017
