O  H                                    
   1.00000000000000     
    20.0000000000000000    0.0000000000000000    0.0000000000000000
     0.0000000000000000   20.0000000000000000    0.0000000000000000
     0.0000000000000000    0.0000000000000000   20.0000000000000000
   O    H 
     1     2
Direct
  0.5000000000000000  0.5000000000000000  0.5125175213452986
  0.5000000000000000  0.5380865033317699  0.4862873768273505
  0.5000000000000000  0.4619134966682300  0.4862873768273505
 
  0.00000000E+00  0.00000000E+00  0.00000000E+00
  0.00000000E+00  0.00000000E+00  0.00000000E+00
  0.00000000E+00  0.00000000E+00  0.00000000E+00
