O  H 
 1.0000000000000000
    20.0000000000000000    0.0000000000000000    0.0000000000000000
     0.0000000000000000   20.0000000000000000    0.0000000000000000
     0.0000000000000000    0.0000000000000000   20.0000000000000000
 O   H  
   1   2
Cartesian
 10.0000000000000000 10.0000000000000000 10.2981545000000008
 10.0000000000000000 10.7632390000000004  9.7018454999999992
 10.0000000000000000  9.2367609999999996  9.7018454999999992
