Cr La O  H                              
   1.00000000000000     
     5.5366999999999997    0.0000000000000000    0.0000000000000000
     0.0000000000000000    5.7473000000000001    0.0000000000000000
     0.0000000000000000    0.0000000000000000   29.0903926399999975
   Cr   La   O    H 
     8     6    21     1
Selective dynamics
Direct
  0.0000000000000000  0.5000000000000000  0.0034375610270203   F   F   F
  0.5000000000000000  0.0000000000000000  0.0034375610270203   F   F   F
  0.5000000000000000  0.0000000000000000  0.1356616271508670   F   F   F
  0.0000000000000000  0.5000000000000000  0.1356616271508670   F   F   F
  0.0000316975319703  0.5034648036774609  0.2691130492614849   T   T   T
  0.5012700689475607  0.0029341033957201  0.2689978362807496   T   T   T
  0.4753472023904099  0.0094136412070030  0.3981001588002356   T   T   T
  0.0174583752412712  0.5116474237013624  0.4061233181468409   T   T   T
  0.5078000000000031  0.5489999999999995  0.0695495940889472   F   F   F
  0.9921999999999969  0.0489999999999995  0.0695495940889472   F   F   F
  0.4921999999999969  0.4510000000000005  0.2017736602127869   F   F   F
  0.0078000000000031  0.9510000000000005  0.2017736602127869   F   F   F
  0.5156912627101469  0.5437338260775696  0.3356938038681710   T   T   T
  0.9842233926375835  0.0437989147440328  0.3355434538094469   T   T   T
  0.7744000000000000  0.8066000000000031  0.0135923693053357   F   F   F
  0.7256000000000000  0.3066000000000031  0.0135923693053357   F   F   F
  0.4254999999999995  0.9874000000000009  0.0695495940889472   F   F   F
  0.0745000000000005  0.4874000000000009  0.0695495940889472   F   F   F
  0.7256000000000000  0.3066000000000031  0.1255068188725588   F   F   F
  0.7744000000000000  0.8066000000000031  0.1255068188725588   F   F   F
  0.2256000000000000  0.1933999999999969  0.1458164354291753   F   F   F
  0.2744000000000000  0.6933999999999969  0.1458164354291753   F   F   F
  0.5745000000000005  0.0125999999999991  0.2017736602127869   F   F   F
  0.9254999999999995  0.5125999999999991  0.2017736602127869   F   F   F
  0.2819603963739050  0.6993124242045465  0.2578575477557701   T   T   T
  0.2182645888154775  0.1992363830063200  0.2579355925475924   T   T   T
  0.7863410888157170  0.8182924755137247  0.2784185983487089   T   T   T
  0.7141359988722855  0.3181512527223816  0.2783894682668670   T   T   T
  0.4253297607455303  0.9891596655066643  0.3334448537978760   T   T   T
  0.0750798574181073  0.4880360751687357  0.3331779649724743   T   T   T
  0.7118474062832835  0.2851326461858921  0.3896836384765183   T   T   T
  0.7872614944480560  0.7928995303727491  0.3904359055227685   T   T   T
  0.2180820615176515  0.1681523954047569  0.4113639360598400   T   T   T
  0.2893426986613565  0.6746852610165529  0.4105639245134595   T   T   T
  0.9938735457888457  0.5077356441061248  0.4698183697962969   T   T   T
  0.0010470846528752  0.5640779622238856  0.5021697363230412   T   T   T
 
  0.00000000E+00  0.00000000E+00  0.00000000E+00
  0.00000000E+00  0.00000000E+00  0.00000000E+00
  0.00000000E+00  0.00000000E+00  0.00000000E+00
  0.00000000E+00  0.00000000E+00  0.00000000E+00
  0.00000000E+00  0.00000000E+00  0.00000000E+00
  0.00000000E+00  0.00000000E+00  0.00000000E+00
  0.00000000E+00  0.00000000E+00  0.00000000E+00
  0.00000000E+00  0.00000000E+00  0.00000000E+00
  0.00000000E+00  0.00000000E+00  0.00000000E+00
  0.00000000E+00  0.00000000E+00  0.00000000E+00
  0.00000000E+00  0.00000000E+00  0.00000000E+00
  0.00000000E+00  0.00000000E+00  0.00000000E+00
  0.00000000E+00  0.00000000E+00  0.00000000E+00
  0.00000000E+00  0.00000000E+00  0.00000000E+00
  0.00000000E+00  0.00000000E+00  0.00000000E+00
  0.00000000E+00  0.00000000E+00  0.00000000E+00
  0.00000000E+00  0.00000000E+00  0.00000000E+00
  0.00000000E+00  0.00000000E+00  0.00000000E+00
  0.00000000E+00  0.00000000E+00  0.00000000E+00
  0.00000000E+00  0.00000000E+00  0.00000000E+00
  0.00000000E+00  0.00000000E+00  0.00000000E+00
  0.00000000E+00  0.00000000E+00  0.00000000E+00
  0.00000000E+00  0.00000000E+00  0.00000000E+00
  0.00000000E+00  0.00000000E+00  0.00000000E+00
  0.00000000E+00  0.00000000E+00  0.00000000E+00
  0.00000000E+00  0.00000000E+00  0.00000000E+00
  0.00000000E+00  0.00000000E+00  0.00000000E+00
  0.00000000E+00  0.00000000E+00  0.00000000E+00
  0.00000000E+00  0.00000000E+00  0.00000000E+00
  0.00000000E+00  0.00000000E+00  0.00000000E+00
  0.00000000E+00  0.00000000E+00  0.00000000E+00
  0.00000000E+00  0.00000000E+00  0.00000000E+00
  0.00000000E+00  0.00000000E+00  0.00000000E+00
  0.00000000E+00  0.00000000E+00  0.00000000E+00
  0.00000000E+00  0.00000000E+00  0.00000000E+00
  0.00000000E+00  0.00000000E+00  0.00000000E+00
