Cr La O  H 
 1.0000000000000000
     5.5366999999999997    0.0000000000000000    0.0000000000000000
     0.0000000000000000    5.7473000000000001    0.0000000000000000
     0.0000000000000000    0.0000000000000000   29.0903926399999975
 Cr  La  O   H  
   8   6  21   1
Selective dynamics
Cartesian
  0.0000000000000000  2.8736500000000000  0.0999999999999822   F   F   F
  2.7683499999999999  0.0000000000000000  0.0999999999999822   F   F   F
  2.7683499999999999  0.0000000000000000  3.9464500000000049   F   F   F
  0.0000000000000000  2.8736500000000000  3.9464500000000049   F   F   F
  5.5359762873952274  2.8701118536945089  7.8361156114020183   T   T   T
  2.7690737126047718  5.7437618536945099  7.8361156114020183   T   T   T
  2.7096381005949008  0.0181329058029477 11.6380341721044829   T   T   T
  0.0587118994050988  2.8917829058029483 11.6380341721044829   T   T   T
  2.8115362600000173  3.1552676999999969  2.0232250000000969   F   F   F
  5.4935137399999823  0.2816176999999971  2.0232250000000969   F   F   F
  2.7251637399999828  2.5920323000000032  5.8696749999999165   F   F   F
  0.0431862600000172  5.4656823000000028  5.8696749999999165   F   F   F
  2.8213577428852230  3.1274878898783673  9.7690591690052599   T   T   T
  5.4836922571147761  0.2538378898783676  9.7690591690052599   T   T   T
  4.2876204799999993  4.6357721800000178  0.3954073600000995   F   F   F
  4.0174295200000003  1.7621221800000177  0.3954073600000995   F   F   F
  2.3558658499999972  5.6748840200000057  2.0232250000000969   F   F   F
  0.4124841500000027  2.8012340200000052  2.0232250000000969   F   F   F
  4.0174295200000003  1.7621221800000177  3.6510426400000973   F   F   F
  4.2876204799999993  4.6357721800000178  3.6510426400000973   F   F   F
  1.2490795200000000  1.1115278199999823  4.2418573599999156   F   F   F
  1.5192704799999999  3.9851778199999823  4.2418573599999156   F   F   F
  3.1808341500000026  0.0724159799999948  5.8696749999999165   F   F   F
  5.1242158499999970  2.9460659799999944  5.8696749999999165   F   F   F
  1.5984747990237775  4.0020815926188558  7.4513184416940179   T   T   T
  1.1698752009762228  1.1284315926188557  7.4513184416940179   T   T   T
  4.3853324215781910  4.6427761408198229  8.0733459456408596   T   T   T
  3.9197175784218086  1.7691261408198222  8.0733459456408596   T   T   T
  2.3799138369767951  0.0205247000252099  9.6942291208913502   T   T   T
  0.3884361630232048  2.8941747000252107  9.6942291208913502   T   T   T
  3.9813673535200156  1.7315880989187380 11.2795874378322765   T   T   T
  4.3236826464799840  4.6052380989187380 11.2795874378322765   T   T   T
  1.1815017681545537  1.1051326033803119 11.8790253343250143   T   T   T
  1.5868482318454462  3.9787826033803126 11.8790253343250143   T   T   T
  0.0000000000000000  2.8364429966881737 13.6790253343250150   T   T   T
  0.0000000000000000  3.1713046584140363 14.5990501885578734   T   T   T
