INCAR created by Atomic Simulation Environment
 GGA = PE
 PREC = normal
 IBRION = -1
 NSW = 0
