O 
 1.0000000000000000
    20.0000000000000000    0.0000000000000000    0.0000000000000000
     0.0000000000000000   20.0000000000000000    0.0000000000000000
     0.0000000000000000    0.0000000000000000   20.0000000000000000
 O  
   2
Cartesian
 10.0000000000000000 10.0000000000000000 10.6229779999999998
 10.0000000000000000 10.0000000000000000  9.3770220000000002
