Cr La O                                 
   1.00000000000000     
     5.5366999999999997    0.0000000000000000    0.0000000000000000
     0.0000000000000000    5.7473000000000001    0.0000000000000000
     0.0000000000000000    0.0000000000000000   29.0903926399999975
   Cr   La   O 
     8     6    21
Selective dynamics
Direct
  0.0000000000000000  0.5000000000000000  0.0034375610270203   F   F   F
  0.5000000000000000  0.0000000000000000  0.0034375610270203   F   F   F
  0.5000000000000000  0.0000000000000000  0.1356616271508670   F   F   F
  0.0000000000000000  0.5000000000000000  0.1356616271508670   F   F   F
  0.9989934697293629  0.5030976828710677  0.2690495837207424   T   T   T
  0.5022379866317328  0.0032165238389695  0.2691007209227430   T   T   T
  0.4791738380850503  0.0129787863227774  0.3990284979539386   T   T   T
  0.0162868575862035  0.5142136066981162  0.4069709353658414   T   T   T
  0.5078000000000031  0.5489999999999995  0.0695495940889472   F   F   F
  0.9921999999999969  0.0489999999999995  0.0695495940889472   F   F   F
  0.4921999999999969  0.4510000000000005  0.2017736602127869   F   F   F
  0.0078000000000031  0.9510000000000005  0.2017736602127869   F   F   F
  0.5152440873202452  0.5433845757703537  0.3355505655766380   T   T   T
  0.9843105932629560  0.0445602239636549  0.3355896736008980   T   T   T
  0.7744000000000000  0.8066000000000031  0.0135923693053357   F   F   F
  0.7256000000000000  0.3066000000000031  0.0135923693053357   F   F   F
  0.4254999999999995  0.9874000000000009  0.0695495940889472   F   F   F
  0.0745000000000005  0.4874000000000009  0.0695495940889472   F   F   F
  0.7256000000000000  0.3066000000000031  0.1255068188725588   F   F   F
  0.7744000000000000  0.8066000000000031  0.1255068188725588   F   F   F
  0.2256000000000000  0.1933999999999969  0.1458164354291753   F   F   F
  0.2744000000000000  0.6933999999999969  0.1458164354291753   F   F   F
  0.5745000000000005  0.0125999999999991  0.2017736602127869   F   F   F
  0.9254999999999995  0.5125999999999991  0.2017736602127869   F   F   F
  0.2811119311002079  0.7026874607772605  0.2585502174231991   T   T   T
  0.2194535982383001  0.2027442395483845  0.2585515551569545   T   T   T
  0.7871962229360889  0.8168014657021393  0.2777932108991231   T   T   T
  0.7122199908248370  0.3162885567455749  0.2777794640212321   T   T   T
  0.4282720136665156  0.9903849662134966  0.3334989111289356   T   T   T
  0.0737511801281599  0.4910070574376464  0.3333601095454856   T   T   T
  0.7140761123621945  0.2907813196145822  0.3890163509679648   T   T   T
  0.7853102515462186  0.7948933932077893  0.3896394959723596   T   T   T
  0.2181355229739773  0.1701429708500740  0.4102778149638242   T   T   T
  0.2850012227500929  0.6757379112117350  0.4103461606735273   T   T   T
  0.9996406748472564  0.5003676563618074  0.4718416761964575   T   T   T
 
  0.00000000E+00  0.00000000E+00  0.00000000E+00
  0.00000000E+00  0.00000000E+00  0.00000000E+00
  0.00000000E+00  0.00000000E+00  0.00000000E+00
  0.00000000E+00  0.00000000E+00  0.00000000E+00
  0.00000000E+00  0.00000000E+00  0.00000000E+00
  0.00000000E+00  0.00000000E+00  0.00000000E+00
  0.00000000E+00  0.00000000E+00  0.00000000E+00
  0.00000000E+00  0.00000000E+00  0.00000000E+00
  0.00000000E+00  0.00000000E+00  0.00000000E+00
  0.00000000E+00  0.00000000E+00  0.00000000E+00
  0.00000000E+00  0.00000000E+00  0.00000000E+00
  0.00000000E+00  0.00000000E+00  0.00000000E+00
  0.00000000E+00  0.00000000E+00  0.00000000E+00
  0.00000000E+00  0.00000000E+00  0.00000000E+00
  0.00000000E+00  0.00000000E+00  0.00000000E+00
  0.00000000E+00  0.00000000E+00  0.00000000E+00
  0.00000000E+00  0.00000000E+00  0.00000000E+00
  0.00000000E+00  0.00000000E+00  0.00000000E+00
  0.00000000E+00  0.00000000E+00  0.00000000E+00
  0.00000000E+00  0.00000000E+00  0.00000000E+00
  0.00000000E+00  0.00000000E+00  0.00000000E+00
  0.00000000E+00  0.00000000E+00  0.00000000E+00
  0.00000000E+00  0.00000000E+00  0.00000000E+00
  0.00000000E+00  0.00000000E+00  0.00000000E+00
  0.00000000E+00  0.00000000E+00  0.00000000E+00
  0.00000000E+00  0.00000000E+00  0.00000000E+00
  0.00000000E+00  0.00000000E+00  0.00000000E+00
  0.00000000E+00  0.00000000E+00  0.00000000E+00
  0.00000000E+00  0.00000000E+00  0.00000000E+00
  0.00000000E+00  0.00000000E+00  0.00000000E+00
  0.00000000E+00  0.00000000E+00  0.00000000E+00
  0.00000000E+00  0.00000000E+00  0.00000000E+00
  0.00000000E+00  0.00000000E+00  0.00000000E+00
  0.00000000E+00  0.00000000E+00  0.00000000E+00
  0.00000000E+00  0.00000000E+00  0.00000000E+00
