Ba Zr O 
 1.0000000000000000
     4.1920000000000002    0.0000000000000000    0.0000000000000000
     0.0000000000000000    4.1920000000000002    0.0000000000000000
     0.0000000000000000    0.0000000000000000    4.1920000000000002
 Ba  Zr  O  
   1   1   3
Cartesian
  0.0000000000000000  0.0000000000000000  0.0000000000000000
  2.0960000000000001  2.0960000000000001  2.0960000000000001
  2.0960000000000001  2.0960000000000001  0.0000000000000000
  2.0960000000000001  0.0000000000000000  2.0960000000000001
  0.0000000000000000  2.0960000000000001  2.0960000000000001
