Cr La O                                 
   1.00000000000000     
     5.5366999999999997    0.0000000000000000    0.0000000000000000
     0.0000000000000000    5.7473000000000001    0.0000000000000000
     0.0000000000000000    0.0000000000000000   29.0903926399999975
   Cr   La   O 
     8     6    22
Selective dynamics
Direct
  0.0000000000000000  0.5000000000000000  0.0034375610270203   F   F   F
  0.5000000000000000  0.0000000000000000  0.0034375610270203   F   F   F
  0.5000000000000000  0.0000000000000000  0.1356616271508670   F   F   F
  0.0000000000000000  0.5000000000000000  0.1356616271508670   F   F   F
  0.9998115605549051  0.5001709193946633  0.2691514235260595   T   T   T
  0.5002450606632338  0.0001485763729983  0.2691467714827329   T   T   T
  0.4882210229373571  0.0032039101067861  0.3998572440698477   T   T   T
  0.0109240229498248  0.5027131059840051  0.4000643084695518   T   T   T
  0.5078000000000031  0.5489999999999995  0.0695495940889472   F   F   F
  0.9921999999999969  0.0489999999999995  0.0695495940889472   F   F   F
  0.4921999999999969  0.4510000000000005  0.2017736602127869   F   F   F
  0.0078000000000031  0.9510000000000005  0.2017736602127869   F   F   F
  0.5105345194964627  0.5446767819358147  0.3358585113856887   T   T   T
  0.9896216916551770  0.0443637112421310  0.3358747059827372   T   T   T
  0.7744000000000000  0.8066000000000031  0.0135923693053357   F   F   F
  0.7256000000000000  0.3066000000000031  0.0135923693053357   F   F   F
  0.4254999999999995  0.9874000000000009  0.0695495940889472   F   F   F
  0.0745000000000005  0.4874000000000009  0.0695495940889472   F   F   F
  0.7256000000000000  0.3066000000000031  0.1255068188725588   F   F   F
  0.7744000000000000  0.8066000000000031  0.1255068188725588   F   F   F
  0.2256000000000000  0.1933999999999969  0.1458164354291753   F   F   F
  0.2744000000000000  0.6933999999999969  0.1458164354291753   F   F   F
  0.5745000000000005  0.0125999999999991  0.2017736602127869   F   F   F
  0.9254999999999995  0.5125999999999991  0.2017736602127869   F   F   F
  0.2868815785313489  0.6972943166384289  0.2566656491770768   T   T   T
  0.2131432950485806  0.1971778887193540  0.2566637021772288   T   T   T
  0.7915502054708797  0.8091803597251950  0.2776342539753169   T   T   T
  0.7083245216769077  0.3090305805178646  0.2776347367631919   T   T   T
  0.4297819150006142  0.0001651034339771  0.3334495444792334   T   T   T
  0.0701719143749697  0.5002874320039926  0.3334421910314859   T   T   T
  0.7178493052544774  0.3007859106630786  0.3878525730086612   T   T   T
  0.7820125913562034  0.8009346165504262  0.3878169070591817   T   T   T
  0.2132190714273647  0.1901543598411305  0.4087918637873019   T   T   T
  0.2891285660471525  0.6914175298218114  0.4086105950182531   T   T   T
  0.9996055806020695  0.3894944508708240  0.4710612993327259   T   T   T
  0.9989028617429282  0.6097648842444050  0.4560027005873863   T   T   T
 
  0.00000000E+00  0.00000000E+00  0.00000000E+00
  0.00000000E+00  0.00000000E+00  0.00000000E+00
  0.00000000E+00  0.00000000E+00  0.00000000E+00
  0.00000000E+00  0.00000000E+00  0.00000000E+00
  0.00000000E+00  0.00000000E+00  0.00000000E+00
  0.00000000E+00  0.00000000E+00  0.00000000E+00
  0.00000000E+00  0.00000000E+00  0.00000000E+00
  0.00000000E+00  0.00000000E+00  0.00000000E+00
  0.00000000E+00  0.00000000E+00  0.00000000E+00
  0.00000000E+00  0.00000000E+00  0.00000000E+00
  0.00000000E+00  0.00000000E+00  0.00000000E+00
  0.00000000E+00  0.00000000E+00  0.00000000E+00
  0.00000000E+00  0.00000000E+00  0.00000000E+00
  0.00000000E+00  0.00000000E+00  0.00000000E+00
  0.00000000E+00  0.00000000E+00  0.00000000E+00
  0.00000000E+00  0.00000000E+00  0.00000000E+00
  0.00000000E+00  0.00000000E+00  0.00000000E+00
  0.00000000E+00  0.00000000E+00  0.00000000E+00
  0.00000000E+00  0.00000000E+00  0.00000000E+00
  0.00000000E+00  0.00000000E+00  0.00000000E+00
  0.00000000E+00  0.00000000E+00  0.00000000E+00
  0.00000000E+00  0.00000000E+00  0.00000000E+00
  0.00000000E+00  0.00000000E+00  0.00000000E+00
  0.00000000E+00  0.00000000E+00  0.00000000E+00
  0.00000000E+00  0.00000000E+00  0.00000000E+00
  0.00000000E+00  0.00000000E+00  0.00000000E+00
  0.00000000E+00  0.00000000E+00  0.00000000E+00
  0.00000000E+00  0.00000000E+00  0.00000000E+00
  0.00000000E+00  0.00000000E+00  0.00000000E+00
  0.00000000E+00  0.00000000E+00  0.00000000E+00
  0.00000000E+00  0.00000000E+00  0.00000000E+00
  0.00000000E+00  0.00000000E+00  0.00000000E+00
  0.00000000E+00  0.00000000E+00  0.00000000E+00
  0.00000000E+00  0.00000000E+00  0.00000000E+00
  0.00000000E+00  0.00000000E+00  0.00000000E+00
  0.00000000E+00  0.00000000E+00  0.00000000E+00
