Ba Zr O  H 
 1.0000000000000000
     8.3840000000000003    0.0000000000000000    0.0000000000000000
     0.0000000000000000    8.3840000000000003    0.0000000000000000
     0.0000000000000000    0.0000000000000000    8.3840000000000003
 Ba  Zr  O   H  
   8   8  24   2
Cartesian
  0.3723285092274470  0.2645006456135263 -0.4621719667571980
  0.3440484551606199  0.1604708305001332  3.9413903773379122
  0.0413492743254401  4.7159794247818301 -0.2477624861337498
  0.0817434866284590  4.3153230876489008  4.0245235839333278
  4.3384862534050779  0.0759861630320711 -0.5023230872597844
  4.6109901946699541  0.2524947724649959  3.8905443873135459
  4.3342930594720217  4.4340577012500670 -0.1474684743499703
  4.3853888224065960  4.5992725315937273  3.9503803601470797
  2.3049954292947024  2.4793156481971690  1.8283375908857071
  2.4264918573888203  2.3073130343721400  6.0632629319614058
  2.4329988080462464  6.6151449818506682  1.9153258015985839
  2.3919648391005937  6.4965691049307095  5.9915841415900708
  6.4970004939427319  2.2820518209129634  2.0242577933555901
  6.5599581294093205  2.2907335561147546  6.1525249146028465
  6.4615881443893262  6.5687392563758289  2.0768474569518642
  6.5540886527479847  6.4418713406766051  6.2560077779247703
  1.9363433082192394  2.7933875093850098 -0.2541249840058603
  2.3856813489644888  2.3872630955453484  3.9007379709927190
  2.3692758347016887  6.6963820717564317 -0.2694776061382747
  2.4479097804861798  6.9081058400974058  3.9191655700215104
  6.1274530140307197  2.3351588060171062 -0.1162079354614354
  6.4405892064733745  2.5307466239858409  4.0810651683660657
  6.9996138826868348  6.8552750954486239 -0.1193822805924639
  6.2052183723355538  6.4878237181775518  4.0700518378877995
  2.0427725042970262  0.3425443396029538  1.6042183669978891
  2.1493501047965373  0.3283378855291326  5.9672807387704321
  2.6648631510830478  4.5153053946000785  1.7651219170874735
  2.0908091504489308  4.4640090082731625  5.7571463203487472
  6.6324471396624123  0.3040688463920065  1.9373688224798635
  6.4991538130258242  0.2332368178788079  6.1993591656057534
  6.4232072658076920  4.4634342043006567  1.7659992875951469
  6.5500229861870398  4.4314208953242282  6.2032227363604582
  0.3119890988919631  2.7369175985027669  1.9315150059444255
  0.3466346203476213  2.4435628354556429  5.8113551283879206
  0.3154742073050139  6.2314583936121668  2.1336171386197909
  0.2413492558344789  6.7058740563559107  5.9623626803872920
  4.4216347774153890  2.1290727950258010  1.8871749426300644
  4.5463219417128817  2.4296800053887058  6.0286036694677634
  4.4866665435036799  6.5534179859677852  1.6450207042901968
  4.5958403661888596  6.4025023511043919  6.3261473561804076
  6.5313857583375352  3.2089379985656952  8.1606740093385675
  3.0412800901912274  0.4548024289985077  1.6643868504840198
