Ba Zr O  H 
 1.0000000000000000
     8.3840000000000003    0.0000000000000000    0.0000000000000000
     0.0000000000000000    8.3840000000000003    0.0000000000000000
     0.0000000000000000    0.0000000000000000    8.3840000000000003
 Ba  Zr  O   H  
   8   8  24   2
Cartesian
  0.3739325472130673  0.2764311879796172 -0.2964427281880515
  0.3771409572070703  0.2207789456950114  3.9778229835539687
  0.0699545173920898  4.6927558276471082 -0.3411438076241983
  0.3728492103257352  4.5365384634424384  3.9005426430979320
  4.3649310037061397  0.1141343859318945 -0.2443343362232042
  4.2918481416978498  0.0958038465958749  3.9330890576758342
  4.2775194352605119  4.5665663735521305 -0.1421212411355329
  4.4625733477146747  4.4663084629426226  4.0792296814299975
  2.2908882982064762  2.2771185225757518  2.0274093837224982
  2.4181341512254315  2.2997139359782932  6.2142115404659837
  2.4279696786764480  6.3111834077899474  1.8910095699589271
  2.2694357947191333  6.3865901276663504  6.0287922959074880
  6.6641454125310311  2.4253094354792037  1.8419990762348546
  6.5229675629944071  2.3839379851383811  5.8165516250595743
  6.5079642790692898  6.6335595450285831  1.8971713030512338
  6.3967992551389052  6.6539854661597602  6.0532891781891669
  2.0059137798185747  2.2788344132935574 -0.0994951435055448
  2.6902059695673906  2.3815747283237445  4.0370778155741025
  2.4546379499674900  6.5634657934428873 -0.1934834990617959
  2.2887765163796314  6.3506833603649753  3.9826940414145189
  6.4208335094792623  2.5692252543012253 -0.3932449406081136
  6.2516358745139744  2.6064874382027838  3.8558577557488340
  6.3450112559474343  6.9328755545285157 -0.3263596124624306
  6.8960433914125669  6.5937780756897171  3.8985388934575451
  2.4445298002897182  0.0771419306019911  1.8942502371100853
  2.6957322907996928  0.2660030568326143  6.0223625006989163
  2.2006395431470063  4.3613765428932947  1.7013364374302633
  2.1785067849413724  4.3560369612429710  5.9286587429693354
  6.2862406603872207  0.4282265395776037  2.0751178781497321
  6.4965198678783951  0.3195655136685155  5.8216903876577373
  6.4393454436550552  4.4967869878176172  1.8287367414769051
  6.4396517924613716  4.6248583895326103  6.3557396367778196
  0.2809079078745912  2.3006331898331687  2.2215871527641449
  0.2284744926106614  2.5804115420297986  5.8340916393885340
  0.2368302350320310  6.6041992392293416  1.5550233430831852
  0.1984759925964291  6.6440792188020890  6.2703965604303411
  4.4030496062373743  2.1819189375003245  1.3464058572058479
  4.5154211764184309  2.4386991407205052  6.2051123548794402
  4.5579371240173616  6.5170520925438522  1.9205088786636837
  4.2710477438445142  6.4745503002143767  5.8168175764239614
  5.3525994934698957  2.4830551736375321  7.9059697745833262
  4.7911432370942384  1.4733299943294140  1.9651910486583184
