Ba Zr O  H 
 1.0000000000000000
     8.3840000000000003    0.0000000000000000    0.0000000000000000
     0.0000000000000000    8.3840000000000003    0.0000000000000000
     0.0000000000000000    0.0000000000000000    8.3840000000000003
 Ba  Zr  O   H  
   8   8  24   2
Cartesian
 -0.0614377445240403  0.2363348317235186 -0.1294625210463691
  0.3313497263680511  0.2799728250071467  3.8864285058641532
  0.1556816488886916  4.6226055329570128 -0.1051952770451596
  0.2689474756021101  4.4262918375115836  4.1136467853114960
  4.7815954556857996  0.2900747383160015 -0.4452313484645384
  4.2749920517493756  0.1793741352508058  3.9651861333397158
  4.2191956218748716  4.2738770154532748 -0.1629197562563109
  4.2700698719027104  4.6422136317635205  4.0699978918800355
  2.4896918882446801  2.4385311417996731  1.9603042496793073
  2.5568895623040864  2.2783149109018925  6.1056906363962371
  2.3550141232117152  6.4235164563570315  1.6825164142139162
  2.4142375684930197  6.6485140196521693  6.0161105359204656
  6.5709567741664898  2.4684179527948222  1.9165177797625084
  6.6314822598699790  2.3114661575796402  5.7620852365239621
  6.5062882928284367  6.5527623845779122  1.9379094458837378
  6.6140510745924335  6.3848890404703518  6.1618068014388010
  2.1632285023120024  2.0297715821346234 -0.3746281955237900
  2.4608121323994325  2.4670925837108837  3.9293558902696475
  2.4937991779586959  6.8538428838969372 -0.3191299328778293
  2.3237288508517508  6.6280325187880180  3.9440197866270585
  6.6653303577221958  2.6731728225258129 -0.4166196791565467
  5.9749991620242229  2.4214879353798886  3.8388612606871604
  6.4605296070832061  6.4133215640392454 -0.0863847069851145
  6.5804380793869210  6.6442421807340555  3.9979576752141379
  1.9905426392425996  0.3297663255727519  1.5893461795190214
  2.2972592394016460  0.2157309395083645  5.7416059546535294
  2.2594037167665757  4.3978395365342804  1.6684922775489248
  2.3788490082258855  4.4156815158563489  6.1932388750833507
  6.6123912025655551  0.4048807826337004  1.7822236288524818
  6.3448314404328734  0.3289016476910964  5.8525926638555728
  6.2386544841629412  4.5721326984552491  1.7744428163962112
  6.4810422458870800  4.3814422811850999  6.0150164845449101
  0.2298721116290704  2.5890435789595476  1.8797017190400718
  0.3730168797412340  2.1801606983236526  5.8003346385884615
  0.2154270750826574  6.2943025429915220  1.8042155130219089
  0.3248047701173911  6.1980487843797407  6.1427587666778853
  4.4472515067606437  2.1492905395010560  1.4205728247068636
  4.5332335040293117  2.5245083531712886  6.1904302813836409
  4.2825657053498434  6.8397162482204115  1.6726585560131242
  4.4863399122158176  6.4424515457696172  6.0426245978986284
  6.5442182528268784  3.5880332962254999  7.7215457891940398
  2.5035505262073738  0.4393369220112511  0.8202105100141884
