cif2pos.py
1.0
     4.19200000     0.00000000     0.00000000
     0.00000000     4.19200000     0.00000000
     0.00000000     0.00000000     4.19200000
  c  b  Ba
  3  1  1
Direct
     0.50000000     0.50000000     0.00000000
     0.50000000     0.00000000     0.50000000
     0.00000000     0.50000000     0.50000000
     0.50000000     0.50000000     0.50000000
     0.00000000     0.00000000     0.00000000
