Cr La O                                 
   1.00000000000000     
     5.5366999999999997    0.0000000000000000    0.0000000000000000
     0.0000000000000000    5.7473000000000001    0.0000000000000000
     0.0000000000000000    0.0000000000000000   29.0903926399999975
   Cr   La   O 
     8     6    20
Selective dynamics
Direct
  0.0000000000000000  0.5000000000000000  0.0034375610270203   F   F   F
  0.5000000000000000  0.0000000000000000  0.0034375610270203   F   F   F
  0.5000000000000000  0.0000000000000000  0.1356616271508670   F   F   F
  0.0000000000000000  0.5000000000000000  0.1356616271508670   F   F   F
  0.9998692880949352  0.4993843811345343  0.2693712562898573   T   T   T
  0.5001307119050648  0.9993843811345344  0.2693712562898573   T   T   T
  0.4893958676819949  0.0031550303277970  0.4000645270116397   T   T   T
  0.0106041323180051  0.5031550303277971  0.4000645270116397   T   T   T
  0.5078000000000031  0.5489999999999995  0.0695495940889472   F   F   F
  0.9921999999999969  0.0489999999999995  0.0695495940889472   F   F   F
  0.4921999999999969  0.4510000000000005  0.2017736602127869   F   F   F
  0.0078000000000031  0.9510000000000005  0.2017736602127869   F   F   F
  0.5095738874934931  0.5441664590117737  0.3358173707003379   T   T   T
  0.9904261125065069  0.0441664590117738  0.3358173707003379   T   T   T
  0.7744000000000000  0.8066000000000031  0.0135923693053357   F   F   F
  0.7256000000000000  0.3066000000000031  0.0135923693053357   F   F   F
  0.4254999999999995  0.9874000000000009  0.0695495940889472   F   F   F
  0.0745000000000005  0.4874000000000009  0.0695495940889472   F   F   F
  0.7256000000000000  0.3066000000000031  0.1255068188725588   F   F   F
  0.7744000000000000  0.8066000000000031  0.1255068188725588   F   F   F
  0.2256000000000000  0.1933999999999969  0.1458164354291753   F   F   F
  0.2744000000000000  0.6933999999999969  0.1458164354291753   F   F   F
  0.5745000000000005  0.0125999999999991  0.2017736602127869   F   F   F
  0.9254999999999995  0.5125999999999991  0.2017736602127869   F   F   F
  0.2887053297133270  0.6963411676124190  0.2561436187508956   T   T   T
  0.2112946702866731  0.1963411676124190  0.2561436187508956   T   T   T
  0.7920480469554412  0.8078186523793472  0.2775261938039232   T   T   T
  0.7079519530445588  0.3078186523793472  0.2775261938039232   T   T   T
  0.4298433790844357  0.0035711899544499  0.3332450421298731   T   T   T
  0.0701566209155643  0.5035711899544500  0.3332450421298731   T   T   T
  0.7190867039066621  0.3012872303375042  0.3877427017716691   T   T   T
  0.7809132960933379  0.8012872303375043  0.3877427017716691   T   T   T
  0.2133945794705427  0.1922872659127437  0.4083487452826974   T   T   T
  0.2866054205294573  0.6922872659127438  0.4083487452826974   T   T   T
 
  0.00000000E+00  0.00000000E+00  0.00000000E+00
  0.00000000E+00  0.00000000E+00  0.00000000E+00
  0.00000000E+00  0.00000000E+00  0.00000000E+00
  0.00000000E+00  0.00000000E+00  0.00000000E+00
  0.00000000E+00  0.00000000E+00  0.00000000E+00
  0.00000000E+00  0.00000000E+00  0.00000000E+00
  0.00000000E+00  0.00000000E+00  0.00000000E+00
  0.00000000E+00  0.00000000E+00  0.00000000E+00
  0.00000000E+00  0.00000000E+00  0.00000000E+00
  0.00000000E+00  0.00000000E+00  0.00000000E+00
  0.00000000E+00  0.00000000E+00  0.00000000E+00
  0.00000000E+00  0.00000000E+00  0.00000000E+00
  0.00000000E+00  0.00000000E+00  0.00000000E+00
  0.00000000E+00  0.00000000E+00  0.00000000E+00
  0.00000000E+00  0.00000000E+00  0.00000000E+00
  0.00000000E+00  0.00000000E+00  0.00000000E+00
  0.00000000E+00  0.00000000E+00  0.00000000E+00
  0.00000000E+00  0.00000000E+00  0.00000000E+00
  0.00000000E+00  0.00000000E+00  0.00000000E+00
  0.00000000E+00  0.00000000E+00  0.00000000E+00
  0.00000000E+00  0.00000000E+00  0.00000000E+00
  0.00000000E+00  0.00000000E+00  0.00000000E+00
  0.00000000E+00  0.00000000E+00  0.00000000E+00
  0.00000000E+00  0.00000000E+00  0.00000000E+00
  0.00000000E+00  0.00000000E+00  0.00000000E+00
  0.00000000E+00  0.00000000E+00  0.00000000E+00
  0.00000000E+00  0.00000000E+00  0.00000000E+00
  0.00000000E+00  0.00000000E+00  0.00000000E+00
  0.00000000E+00  0.00000000E+00  0.00000000E+00
  0.00000000E+00  0.00000000E+00  0.00000000E+00
  0.00000000E+00  0.00000000E+00  0.00000000E+00
  0.00000000E+00  0.00000000E+00  0.00000000E+00
  0.00000000E+00  0.00000000E+00  0.00000000E+00
  0.00000000E+00  0.00000000E+00  0.00000000E+00
