Cr La O 
 1.0000000000000000
     5.5366999999999997    0.0000000000000000    0.0000000000000000
     0.0000000000000000    5.7473000000000001    0.0000000000000000
     0.0000000000000000    0.0000000000000000   29.0903926399999975
 Cr  La  O  
   8   6  20
Selective dynamics
Cartesian
  0.0000000000000000  2.8736500000000000  0.0999999999999996   F   F   F
  2.7683499999999999  0.0000000000000000  0.0999999999999996   F   F   F
  2.7683499999999999  0.0000000000000000  3.9464499999999987   F   F   F
  0.0000000000000000  2.8736500000000000  3.9464499999999987   F   F   F
  0.0000000000000000  2.8736500000000000  7.7928999999999977   T   T   T
  2.7683499999999999  0.0000000000000000  7.7928999999999977   T   T   T
  2.7683499999999999  0.0000000000000000 11.6393499999999985   T   T   T
  0.0000000000000000  2.8736500000000000 11.6393499999999985   T   T   T
  2.8115362600000000  3.1552677000000005  2.0232249999999983   F   F   F
  5.4935137399999991  0.2816177000000000  2.0232249999999983   F   F   F
  2.7251637400000002  2.5920323000000001  5.8696749999999991   F   F   F
  0.0431862600000000  5.4656823000000001  5.8696749999999991   F   F   F
  2.8115362600000000  3.1552677000000005  9.7161249999999963   T   T   T
  5.4935137399999991  0.2816177000000000  9.7161249999999963   T   T   T
  4.2876204799999993  4.6357721800000000  0.3954073599999992   F   F   F
  4.0174295200000003  1.7621221800000000  0.3954073599999992   F   F   F
  2.3558658499999998  5.6748840200000004  2.0232249999999983   F   F   F
  0.4124841499999999  2.8012340199999999  2.0232249999999983   F   F   F
  4.0174295200000003  1.7621221800000000  3.6510426399999982   F   F   F
  4.2876204799999993  4.6357721800000000  3.6510426399999982   F   F   F
  1.2490795200000000  1.1115278200000001  4.2418573599999991   F   F   F
  1.5192704799999992  3.9851778200000001  4.2418573599999991   F   F   F
  3.1808341499999999  0.0724159800000000  5.8696749999999991   F   F   F
  5.1242158499999997  2.9460659799999998  5.8696749999999991   F   F   F
  1.5192704799999992  3.9851778200000001  7.4974926399999990   T   T   T
  1.2490795200000000  1.1115278200000001  7.4974926399999990   T   T   T
  4.2876204799999993  4.6357721800000000  8.0883073599999964   T   T   T
  4.0174295200000003  1.7621221800000000  8.0883073599999964   T   T   T
  2.3558658499999998  5.6748840200000004  9.7161249999999963   T   T   T
  0.4124841499999999  2.8012340199999999  9.7161249999999963   T   T   T
  4.0174295200000003  1.7621221800000000 11.3439426399999963   T   T   T
  4.2876204799999993  4.6357721800000000 11.3439426399999963   T   T   T
  1.2490795200000000  1.1115278200000001 11.9347573599999972   T   T   T
  1.5192704799999992  3.9851778200000001 11.9347573599999972   T   T   T
